p cnf 7230 16
-4992 -4993 0
4990 4991 0
4402 -4991 0
-4402 -4990 0
4988 4989 0
4400 -4989 0
-4400 -4988 0
4986 4987 0
4378 -4987 0
-4378 -4986 0
4984 4985 0
4374 -4985 0
-4374 -4984 0
-4404 4993 0
4982 4983 0
4404 -4993 0
